#### Settings required by ChIMES pairstyle ####

units           real        
newton          on          
atom_style      atomic      
atom_modify     sort 0 0.0

#### Neighbor list setup ####

neighbor        1.0 bin
neigh_modify    delay 0 every 1 check yes

#### Test case: HN3 at 3000.0 K ####

read_data	data.in
velocity	all create 3000.0 1111 loop all mom yes rot yes dist gaussian

#### Evaluate interactions with ChIMES ####

pair_style      chimesFF
pair_coeff      * * ../../../serial_interface/tests/force_fields/published_params.HN3.2+3+4b.Tersoff.special.offsets.txt

#### Specify dynamics and i/o ####

timestep        0.2

fix             1 all nvt temp 3000.0 3000.0 20.0
# fix_modify      1 energy yes # Convert etotal to conserved quantity (add thermostat contributions)

thermo_style    custom step time ke pe temp press etotal econserve  # econserve replaces fix_modify
thermo_modify   line one format float %20.5f flush yes
thermo          1

run		2


