#############################################
# Specify high-level simulation style
##############################################

units        real                      # Specify units to use
newton       on
atom_style   atomic                      # Only store info on atom coords and type - no bonded info
atom_modify  sort 0 0.0                # Maintain atom ordering when printing information
atom_modify  map array                 # Also needed to maintain ordering
neighbor     1.0 bin                   # Specify neighborlist parameters
neigh_modify delay 0 every 1 check yes # More neighborlist parameters

boundary p p p
box tilt large
read_data    ./final_structure.data
pair_style hybrid/overlay chimesFF fingerprint 50 momb 12.0 0.75 20.0
pair_coeff  * * chimesFF params.txt.reduced 
pair_coeff 1 1  momb 0.0 1.0 1.0 418.2600153 2.904
pair_coeff 2 2  momb 0.0 1.0 1.0 2206.022943 3.432
pair_coeff 1 2  momb 0.0 1.0 1.0 960.5681861 3.168

##############################################
# Specify the requested output
##############################################
#
variable temp equal 1000

compute         ke_tensor all temp
thermo_style    custom step time ke pe etotal temp press pxx pyy pzz pxy pxz pyz vol c_ke_tensor[1] c_ke_tensor[2] c_ke_tensor[3] c_ke_tensor[4] c_ke_tensor[5] c_ke_tensor[6]
thermo_modify   line one format float %20.5f flush yes
thermo 1

timestep 0.1
dump            1 all custom 1 traj.lammpstrj id element xu yu zu fx fy fz
dump_modify 1 element C Si sort id
# Run
velocity all create ${temp} 2217 rot yes dist gaussian
fix 2 all nvt temp ${temp} ${temp} 100
fix_modify 2 energy yes
run 500
# write_data      final_structure.data
# Post-run
# Output relaxed structure

